sat
(:max-memory          18.53
 :memory              18.43
 :nlsat-arith-var     20
 :nlsat-atoms         112
 :nlsat-bool-var      18
 :nlsat-clauses       63
 :nlsat-propagations  36
 :nlsat-stages        21
 :num-allocs          61039
 :rlimit-count        7553
 :solve-eqs-elim-vars 21
 :solve-eqs-steps     69
 :time                0.01
 :total-time          0.02)
